c random cnf
p cnf 50 50
6 10 0
42 -49 0
-17 -27 0
18 -24 0
12 -47 0
5 40 0
-16 -35 0
27 35 0
15 50 0
-4 33 0
-18 36 0
-31 48 0
-6 33 0
-7 -32 0
-46 49 0
-21 -32 0
27 -33 0
-27 29 0
-3 -9 0
2 14 0
23 -47 0
4 -34 0
-23 -41 0
-3 28 0
17 30 0
-13 -50 0
-21 43 0
12 16 0
-5 -14 0
-17 46 0
33 40 0
-5 -13 0
41 45 0
12 -48 0
5 43 0
-15 -40 0
19 30 0
-38 -39 0
26 44 0
-6 7 0
28 -35 0
-3 -24 0
-46 48 0
-13 -20 0
-24 49 0
10 19 0
13 -38 0
-1 -26 0
5 38 0
-22 -35 0
